Optimal - objective value 1360.00000000
      0 x(1,1)                  1                      18
     10 x(2,1)                  1                      12
     23 x(3,4)                  1                      17
     35 x(4,6)                  1                      10
     45 x(5,6)                  1                      10
     52 x(6,3)                  1                      17
     64 x(7,5)                  1                      20
     77 x(8,8)                  1                      20
     82 x(9,3)                  1                      11
     92 x(10,3)                 1                      12
    105 x(11,6)                 1                      17
    110 x(12,1)                 1                      13
    128 x(13,9)                 1                      10
    133 x(14,4)                 1                      18
    145 x(15,6)                 1                      12
    152 x(16,3)                 1                      12
    166 x(17,7)                 1                      11
    171 x(18,2)                 1                      12
    181 x(19,2)                 1                       0
    191 x(20,2)                 1                      15
    204 x(21,5)                 1                      16
    212 x(22,3)                 1                      10
    221 x(23,2)                 1                      11
    231 x(24,2)                 1                      19
    240 x(25,1)                 1                      13
    250 x(26,1)                 1                      20
    263 x(27,4)                 1                      22
    277 x(28,8)                 1                      10
    287 x(29,8)                 1                      21
    295 x(30,6)                 1                      10
    303 x(31,4)                 1                      17
    315 x(32,6)                 1                      10
    320 x(33,1)                 1                      18
    336 x(34,7)                 1                      11
    342 x(35,3)                 1                      12
    350 x(36,1)                 1                      12
    367 x(37,8)                 1                      10
    370 x(38,1)                 1                      23
    383 x(39,4)                 1                      27
    393 x(40,4)                 1                      14
    408 x(41,9)                 1                      16
    415 x(42,6)                 1                      10
    425 x(43,6)                 1                      13
    433 x(44,4)                 1                      11
    443 x(45,4)                 1                      17
    456 x(46,7)                 1                      12
    466 x(47,7)                 1                      14
    477 x(48,8)                 1                      14
    482 x(49,3)                 1                      10
    499 x(50,10)                1                      11
    505 x(51,6)                 1                      24
    519 x(52,10)                1                      14
    524 x(53,5)                 1                      12
    530 x(54,1)                 1                      11
    540 x(55,1)                 1                      21
    558 x(56,9)                 1                      11
    568 x(57,9)                 1                      16
    571 x(58,2)                 1                       0
    588 x(59,9)                 1                      12
    592 x(60,3)                 1                      10
    603 x(61,4)                 1                      14
    613 x(62,4)                 1                      12
    628 x(63,9)                 1                      10
    632 x(64,3)                 1                       0
    644 x(65,5)                 1                      10
    654 x(66,5)                 1                      20
    668 x(67,9)                 1                      12
    679 x(68,10)                1                      12
    686 x(69,7)                 1                      10
    698 x(70,9)                 1                      11
    701 x(71,2)                 1                      15
    716 x(72,7)                 1                      11
    722 x(73,3)                 1                      17
    738 x(74,9)                 1                      11
    744 x(75,5)                 1                      10
    758 x(76,9)                 1                      12
    760 x(77,1)                 1                      10
    777 x(78,8)                 1                      12
    785 x(79,6)                 1                      10
    792 x(80,3)                 1                      11
    801 x(81,2)                 1                      14
    815 x(82,6)                 1                      12
    821 x(83,2)                 1                      15
    830 x(84,1)                 1                      10
    845 x(85,6)                 1                      11
    857 x(86,8)                 1                      11
    867 x(87,8)                 1                      12
    878 x(88,9)                 1                      10
    881 x(89,2)                 1                      18
    896 x(90,7)                 1                      10
    909 x(91,10)                1                      12
    912 x(92,3)                 1                      10
    926 x(93,7)                 1                      20
    930 x(94,1)                 1                      15
    947 x(95,8)                 1                      19
    951 x(96,2)                 1                      10
    969 x(97,10)                1                      11
    979 x(98,10)                1                      13
    987 x(99,8)                 1                      12
    993 x(100,4)                1                      14
